projected/problems_b25_r0_d7_m100_s666/_DIMACS/b25_d7_r0_s666_051.cnf
p cnf 237 386 25
c p show 1 2 3 4 5 6 7 8 9 10 11 12 13 14 15 16 17 18 19 20 21 22 23 24 25
-26 -21 19 0
-27 9 0
-27 -25 0
-28 27 26 0
-29 13 0
-29 7 0
-30 24 -1 0
-31 30 29 0
-32 31 0
-32 28 0
-33 13 -8 0
-34 -3 0
-34 20 0
-35 34 33 0
-36 1 0
-36 -7 0
-37 1 0
-37 16 0
-38 37 0
-38 36 0
-39 38 0
-39 35 0
-40 39 32 0
-41 -16 0
-41 9 0
-42 -23 -5 0
-43 42 0
-43 41 0
-44 -23 8 0
-45 -16 0
-45 -6 0
-46 45 0
-46 44 0
-47 46 0
-47 43 0
-48 23 0
-48 -8 0
-49 16 6 0
-50 49 48 0
-51 16 -9 0
-52 23 0
-52 5 0
-53 52 51 0
-54 53 0
-54 50 0
-55 54 47 0
-56 -11 0
-56 -4 0
-57 -11 -20 0
-58 57 0
-58 56 0
-59 12 0
-59 24 0
-60 8 24 0
-61 60 59 0
-62 61 58 0
-63 62 0
-63 55 0
-64 63 40 0
-65 -9 0
-65 23 0
-66 -20 7 0
-67 66 65 0
-68 -5 -14 0
-69 14 5 0
-70 69 0
-70 68 0
-71 3 0
-71 -25 0
-72 25 0
-72 -3 0
-73 72 71 0
-74 73 0
-74 70 0
-75 -3 25 0
-76 -25 3 0
-77 76 0
-77 75 0
-78 5 0
-78 14 0
-79 -14 0
-79 -5 0
-80 79 78 0
-81 80 0
-81 77 0
-82 81 74 0
-83 82 67 0
-84 23 -24 0
-85 -22 0
-85 -3 0
-86 3 0
-86 22 0
-87 86 85 0
-88 87 0
-88 84 0
-89 -7 0
-89 -12 0
-90 12 0
-90 7 0
-91 90 89 0
-92 18 19 0
-93 -19 -18 0
-94 93 0
-94 92 0
-95 94 91 0
-96 95 0
-96 88 0
-97 96 83 0
-98 -23 0
-98 24 0
-99 22 3 0
-100 -3 -22 0
-101 100 0
-101 99 0
-102 101 98 0
-103 7 12 0
-104 -12 -7 0
-105 104 0
-105 103 0
-106 -18 0
-106 -19 0
-107 19 0
-107 18 0
-108 107 106 0
-109 108 0
-109 105 0
-110 109 102 0
-111 9 -23 0
-112 20 0
-112 -7 0
-113 112 0
-113 111 0
-114 77 80 0
-115 70 73 0
-116 115 0
-116 114 0
-117 116 0
-117 113 0
-118 117 110 0
-119 118 0
-119 97 0
-120 20 0
-120 13 0
-121 16 0
-121 -20 0
-122 121 0
-122 120 0
-123 -16 20 0
-124 -20 -13 0
-125 124 0
-125 123 0
-126 125 122 0
-127 9 19 0
-128 -23 15 0
-129 128 0
-129 127 0
-130 129 0
-130 126 0
-131 -17 22 0
-132 -17 12 0
-133 132 131 0
-134 25 0
-134 -24 0
-135 -5 0
-135 23 0
-136 135 134 0
-137 5 -23 0
-138 -25 24 0
-139 138 137 0
-140 139 0
-140 136 0
-141 140 0
-141 133 0
-142 141 130 0
-143 142 119 0
-144 143 0
-144 64 0
-145 -17 0
-145 -14 0
-146 -20 0
-146 18 0
-147 146 145 0
-148 10 -4 0
-149 25 -22 0
-150 149 0
-150 148 0
-151 -25 0
-151 22 0
-152 -10 0
-152 4 0
-153 152 0
-153 151 0
-154 153 150 0
-155 154 0
-155 147 0
-156 -22 13 0
-157 17 10 0
-158 157 156 0
-159 14 6 0
-160 -12 -17 0
-161 160 0
-161 159 0
-162 161 0
-162 158 0
-163 162 155 0
-164 -5 0
-164 19 0
-165 1 -18 0
-166 165 0
-166 164 0
-167 -1 9 0
-168 14 0
-168 -5 0
-169 168 167 0
-170 169 166 0
-171 1 0
-171 -9 0
-172 -14 5 0
-173 172 0
-173 171 0
-174 5 -19 0
-175 -1 0
-175 18 0
-176 175 174 0
-177 176 173 0
-178 177 0
-178 170 0
-179 11 0
-179 -18 0
-180 -25 0
-180 -21 0
-181 180 0
-181 179 0
-182 1 2 0
-183 -24 17 0
-184 183 182 0
-185 184 181 0
-186 185 178 0
-187 186 163 0
-188 14 0
-188 6 0
-189 14 3 0
-190 189 188 0
-191 13 -21 0
-192 1 0
-192 -1 0
-193 192 0
-193 191 0
-194 193 0
-194 190 0
-195 1 20 0
-196 -10 0
-196 -3 0
-197 196 0
-197 195 0
-198 -19 0
-198 1 0
-199 -1 0
-199 19 0
-200 199 198 0
-201 -25 -14 0
-202 201 0
-202 200 0
-203 202 197 0
-204 203 194 0
-205 1 23 0
-206 -7 0
-206 5 0
-207 206 0
-207 205 0
-208 14 -5 0
-209 16 -13 0
-210 209 208 0
-211 210 207 0
-212 -21 2 0
-213 10 0
-213 -7 0
-214 213 212 0
-215 23 -2 0
-216 -12 0
-216 -5 0
-217 216 215 0
-218 217 0
-218 214 0
-219 218 211 0
-220 21 0
-220 -2 0
-221 -10 7 0
-222 221 0
-222 220 0
-223 -23 0
-223 2 0
-224 12 5 0
-225 224 0
-225 223 0
-226 225 222 0
-227 -1 0
-227 -23 0
-228 7 -5 0
-229 228 227 0
-230 -14 0
-230 5 0
-231 -16 0
-231 13 0
-232 231 0
-232 230 0
-233 232 0
-233 229 0
-234 233 226 0
-235 234 0
-235 219 0
-236 235 204 0
-237 236 0
-237 187 0
237 144 0
-48 -44 0
-45 -49 0
-49 -45 0
-50 -46 0
-46 -50 0
-51 -41 0
-41 -51 0
-42 -52 0
-43 -53 0
-53 -43 0
-84 -98 0
-101 -87 0
-87 -101 0
-88 -102 0
-102 -88 0
-105 -91 0
-94 -108 0
-108 -94 0
-109 -95 0
-110 -96 0
-111 -65 0
-65 -111 0
-66 -112 0
-67 -113 0
-113 -67 0
-77 -73 0
-73 -77 0
-70 -80 0
-80 -70 0
-116 -82 0
-117 -83 0
-83 -117 0
-121 -123 0
-124 -120 0
-137 -135 0
-138 -134 0
-134 -138 0
-149 -151 0
-152 -148 0
-167 -171 0
-172 -168 0
-168 -172 0
-169 -173 0
-173 -169 0
-164 -174 0
-174 -164 0
-175 -165 0
-176 -166 0
-166 -176 0
-220 -212 0
-213 -221 0
-221 -213 0
-222 -214 0
-223 -215 0
-215 -223 0
-224 -216 0
-216 -224 0
-217 -225 0
-225 -217 0
-226 -218 0
-227 -205 0
-228 -206 0
-229 -207 0
-230 -208 0
-208 -230 0
-231 -209 0
-209 -231 0
-210 -232 0
-232 -210 0
-233 -211 0
-211 -233 0
