projected/problems_b25_r0_d7_m100_s666/b25_d7_r0_s666_051.smt2
(set-logic QF_UF)
(declare-fun A0 () Bool)
(declare-fun A1 () Bool)
(declare-fun A2 () Bool)
(declare-fun A3 () Bool)
(declare-fun A4 () Bool)
(declare-fun A5 () Bool)
(declare-fun A6 () Bool)
(declare-fun A7 () Bool)
(declare-fun A8 () Bool)
(declare-fun A9 () Bool)
(declare-fun A10 () Bool)
(declare-fun A11 () Bool)
(declare-fun A12 () Bool)
(declare-fun A13 () Bool)
(declare-fun A14 () Bool)
(declare-fun A15 () Bool)
(declare-fun A16 () Bool)
(declare-fun A17 () Bool)
(declare-fun A18 () Bool)
(declare-fun A19 () Bool)
(declare-fun A20 () Bool)
(declare-fun A21 () Bool)
(declare-fun A22 () Bool)
(declare-fun A23 () Bool)
(declare-fun A24 () Bool)
(assert (let ((.def_0 (not A18))) (let ((.def_1 (and A20 .def_0))) (let ((.def_2 (not A8))) (let ((.def_3 (or .def_2 A24))) (let ((.def_4 (and .def_3 .def_1))) (let ((.def_5 (and A12 A6))) (let ((.def_6 (not A23))) (let ((.def_7 (and .def_6 A0))) (let ((.def_8 (not .def_7))) (let ((.def_9 (or .def_8 .def_5))) (let ((.def_10 (not .def_9))) (let ((.def_11 (or .def_10 .def_4))) (let ((.def_12 (not .def_11))) (let ((.def_13 (not A7))) (let ((.def_14 (or A12 .def_13))) (let ((.def_15 (not .def_14))) (let ((.def_16 (not A2))) (let ((.def_17 (and .def_16 A19))) (let ((.def_18 (not .def_17))) (let ((.def_19 (and .def_18 .def_15))) (let ((.def_20 (not A6))) (let ((.def_21 (and A0 .def_20))) (let ((.def_22 (not .def_21))) (let ((.def_23 (and A0 A15))) (let ((.def_24 (not .def_23))) (let ((.def_25 (or .def_24 .def_22))) (let ((.def_26 (or .def_25 .def_19))) (let ((.def_27 (not .def_26))) (let ((.def_28 (or .def_27 .def_12))) (let ((.def_29 (and A22 .def_13))) (let ((.def_30 (not A5))) (let ((.def_31 (not A15))) (let ((.def_32 (and .def_31 .def_30))) (let ((.def_33 (not .def_32))) (let ((.def_34 (or .def_33 .def_29))) (let ((.def_35 (not .def_34))) (let ((.def_36 (or A15 .def_2))) (let ((.def_37 (not .def_36))) (let ((.def_38 (not A4))) (let ((.def_39 (not A22))) (let ((.def_40 (or .def_39 .def_38))) (let ((.def_41 (and .def_40 .def_37))) (let ((.def_42 (not .def_41))) (let ((.def_43 (= .def_42 .def_35))) (let ((.def_44 (or A10 A3))) (let ((.def_45 (not .def_44))) (let ((.def_46 (not A19))) (let ((.def_47 (not A10))) (let ((.def_48 (or .def_47 .def_46))) (let ((.def_49 (and .def_48 .def_45))) (let ((.def_50 (not .def_49))) (let ((.def_51 (not A11))) (let ((.def_52 (or .def_51 .def_6))) (let ((.def_53 (not .def_52))) (let ((.def_54 (or A7 A23))) (let ((.def_55 (or .def_54 .def_53))) (let ((.def_56 (not .def_55))) (let ((.def_57 (and .def_56 .def_50))) (let ((.def_58 (or .def_57 .def_43))) (let ((.def_59 (not .def_58))) (let ((.def_60 (or .def_59 .def_28))) (let ((.def_61 (or A22 .def_6))) (let ((.def_62 (not A21))) (let ((.def_63 (= A2 .def_62))) (let ((.def_64 (not .def_63))) (let ((.def_65 (and .def_64 .def_61))) (let ((.def_66 (not .def_65))) (let ((.def_67 (= A11 .def_20))) (let ((.def_68 (not A17))) (let ((.def_69 (= A18 .def_68))) (let ((.def_70 (not .def_69))) (let ((.def_71 (and .def_70 .def_67))) (let ((.def_72 (or .def_71 .def_66))) (let ((.def_73 (or A8 .def_39))) (let ((.def_74 (not .def_73))) (let ((.def_75 (or .def_46 A6))) (let ((.def_76 (or .def_75 .def_74))) (let ((.def_77 (not .def_76))) (let ((.def_78 (= A24 A2))) (let ((.def_79 (not .def_78))) (let ((.def_80 (not A13))) (let ((.def_81 (= .def_80 A4))) (let ((.def_82 (not .def_81))) (let ((.def_83 (= .def_82 .def_79))) (let ((.def_84 (and .def_83 .def_77))) (let ((.def_85 (not .def_84))) (let ((.def_86 (= .def_85 .def_72))) (let ((.def_87 (not .def_86))) (let ((.def_88 (and A15 .def_46))) (let ((.def_89 (not A12))) (let ((.def_90 (or .def_46 .def_89))) (let ((.def_91 (= .def_90 .def_88))) (let ((.def_92 (and .def_2 .def_0))) (let ((.def_93 (or .def_39 A14))) (let ((.def_94 (not .def_93))) (let ((.def_95 (or .def_94 .def_92))) (let ((.def_96 (or .def_95 .def_91))) (let ((.def_97 (not .def_96))) (let ((.def_98 (and A16 .def_62))) (let ((.def_99 (not A16))) (let ((.def_100 (or .def_99 A11))) (let ((.def_101 (not .def_100))) (let ((.def_102 (and .def_101 .def_98))) (let ((.def_103 (or A4 .def_39))) (let ((.def_104 (not A24))) (let ((.def_105 (or .def_104 A23))) (let ((.def_106 (not .def_105))) (let ((.def_107 (= .def_106 .def_103))) (let ((.def_108 (not .def_107))) (let ((.def_109 (or .def_108 .def_102))) (let ((.def_110 (not .def_109))) (let ((.def_111 (or .def_110 .def_97))) (let ((.def_112 (not .def_111))) (let ((.def_113 (and .def_112 .def_87))) (let ((.def_114 (not .def_113))) (let ((.def_115 (and .def_114 .def_60))) (let ((.def_116 (and .def_99 .def_80))) (let ((.def_117 (and .def_46 A17))) (let ((.def_118 (or .def_117 .def_116))) (let ((.def_119 (not .def_118))) (let ((.def_120 (or A24 .def_62))) (let ((.def_121 (not A9))) (let ((.def_122 (and .def_121 A3))) (let ((.def_123 (= .def_122 .def_120))) (let ((.def_124 (or .def_123 .def_119))) (let ((.def_125 (not .def_124))) (let ((.def_126 (and A21 .def_89))) (let ((.def_127 (and .def_99 .def_121))) (let ((.def_128 (and .def_127 .def_126))) (let ((.def_129 (or A13 A5))) (let ((.def_130 (not .def_129))) (let ((.def_131 (or .def_51 .def_99))) (let ((.def_132 (not .def_131))) (let ((.def_133 (or .def_132 .def_130))) (let ((.def_134 (or .def_133 .def_128))) (let ((.def_135 (not .def_134))) (let ((.def_136 (or .def_135 .def_125))) (let ((.def_137 (not A0))) (let ((.def_138 (or .def_137 A8))) (let ((.def_139 (or .def_80 A4))) (let ((.def_140 (not .def_139))) (let ((.def_141 (or .def_140 .def_138))) (let ((.def_142 (not .def_141))) (let ((.def_143 (and .def_38 A18))) (let ((.def_144 (not .def_143))) (let ((.def_145 (and .def_137 A17))) (let ((.def_146 (or .def_145 .def_144))) (let ((.def_147 (not .def_146))) (let ((.def_148 (= .def_147 .def_142))) (let ((.def_149 (or .def_47 A17))) (let ((.def_150 (not .def_149))) (let ((.def_151 (or A24 A20))) (let ((.def_152 (not .def_151))) (let ((.def_153 (and .def_152 .def_150))) (let ((.def_154 (not .def_153))) (let ((.def_155 (not A1))) (let ((.def_156 (and .def_137 .def_155))) (let ((.def_157 (and A23 .def_99))) (let ((.def_158 (and .def_157 .def_156))) (let ((.def_159 (and .def_158 .def_154))) (let ((.def_160 (not .def_159))) (let ((.def_161 (or .def_160 .def_148))) (let ((.def_162 (or .def_161 .def_136))) (let ((.def_163 (not .def_162))) (let ((.def_164 (or .def_80 .def_30))) (let ((.def_165 (and .def_80 .def_16))) (let ((.def_166 (and .def_165 .def_164))) (let ((.def_167 (not .def_166))) (let ((.def_168 (and .def_89 A20))) (let ((.def_169 (not .def_168))) (let ((.def_170 (and A0 .def_137))) (let ((.def_171 (and .def_170 .def_169))) (let ((.def_172 (and .def_171 .def_167))) (let ((.def_173 (and .def_137 .def_46))) (let ((.def_174 (and .def_121 .def_16))) (let ((.def_175 (not .def_174))) (let ((.def_176 (or .def_175 .def_173))) (let ((.def_177 (= .def_137 .def_0))) (let ((.def_178 (not .def_177))) (let ((.def_179 (or .def_104 .def_80))) (let ((.def_180 (and .def_179 .def_178))) (let ((.def_181 (not .def_180))) (let ((.def_182 (and .def_181 .def_176))) (let ((.def_183 (not .def_182))) (let ((.def_184 (or .def_183 .def_172))) (let ((.def_185 (and A20 .def_155))) (let ((.def_186 (and A9 .def_20))) (let ((.def_187 (not .def_186))) (let ((.def_188 (and .def_187 .def_185))) (let ((.def_189 (and .def_39 A1))) (let ((.def_190 (not .def_189))) (let ((.def_191 (or A11 A4))) (let ((.def_192 (not .def_191))) (let ((.def_193 (or .def_192 .def_190))) (let ((.def_194 (not .def_193))) (let ((.def_195 (or .def_194 .def_188))) (let ((.def_196 (and .def_137 .def_39))) (let ((.def_197 (or A6 .def_38))) (let ((.def_198 (or .def_197 .def_196))) (let ((.def_199 (and .def_80 A4))) (let ((.def_200 (not .def_199))) (let ((.def_201 (and .def_31 A12))) (let ((.def_202 (not .def_201))) (let ((.def_203 (or .def_202 .def_200))) (let ((.def_204 (not .def_203))) (let ((.def_205 (and .def_204 .def_198))) (let ((.def_206 (not .def_205))) (let ((.def_207 (= .def_206 .def_195))) (let ((.def_208 (or .def_207 .def_184))) (let ((.def_209 (not .def_208))) (let ((.def_210 (or .def_209 .def_163))) (let ((.def_211 (not .def_210))) (let ((.def_212 (or .def_211 .def_115))) .def_212))))))))))))))))))))))))))))))))))))))))))))))))))))))))))))))))))))))))))))))))))))))))))))))))))))))))))))))))))))))))))))))))))))))))))))))))))))))))))))))))))))))))))))))))))))))))))))))))))))))))))))))))))))))
(check-sat)
